\ENCODING=ISO-8859-1
\Problem name: CPLEX

Minimize
 obj: - x1 - x2
Subject To
 c1: - x1 <= 0
 c2: - x2 <= 0
 c3: x1 + 1.16938655788456 x2 <= 1
 c4: 10.2509476203339 x1 + x2 <= 1
Bounds
      x1 Free
      x2 Free
End
